425,323
567,369
729,441
718,292
681,166
427,152
368,507
282,535
635,702
491,596
521,487
654,459
681,436
282,535
168,572
521,487
593,392
567,369
681,-104
892,115
1080,277
1041,46
721,486
778,476
1191,406
1028,229
681,436
593,392
425,323
381,406
